13,1	0,0	5,2	11,7	0,0	0,0	0,0	0,0	0,0	18,0
10,8	16,2	0,0	12,7	7,2	0,0	0,0	13,6	0,0	0,0
0,0	0,0	9,8	0,0	19,8	8,1	0,0	0,0	12,9	0,0
19,0	0,0	5,7	0,0	0,0	0,0	6,5	0,0	0,0	0,0
0,0	13,7	0,0	8,8	17,9	0,0	0,0	5,6	0,0	0,0
0,0	19,2	17,0	0,0	6,5	6,0	0,0	0,0	15,0	0,0
0,0	19,2	0,0	5,2	0,0	0,0	17,0	0,0	0,0	6,6
16,7	0,0	14,7	0,0	0,0	0,0	0,0	0,0	0,0	14,9
0,0	8,1	0,0	10,3	8,3	0,0	0,0	17,4	0,0	0,0
0,0	0,0	6,7	0,0	0,0	7,6	9,3	0,0	0,0	20,0
									
4,5	4,2	4,1	4,6	4,9	4,7	4,7	3,4	3,8	2,8
